NAME: test36
TYPE: TSP
DIMENSION: 10
EDGE_WEIGHT_TYPE: EUC_2D
NODE_COORD_SECTION
1 43.723732750756206 94.69035592787907
2 43.314146234810444 91.00094683531469
3 10.574551433755131 61.026842429796346
4 25.15004836686566 99.61662253773798
5 86.81656808370614 98.65995356095468
6 11.587423770245964 87.795549656733
7 31.65584887646091 50.14758396168879
8 71.48807013296845 81.16526641461488
9 37.9436447684666 79.59027616047145
10 27.04542231823147 17.758579978127408
EOF
